objective value:                                   68
yc0006(D0,P2)                                       1 	(obj:0)
yc0006(D1,P1)                                       1 	(obj:0)
yc0006(D2,P2)                                       1 	(obj:0)
yc0011(D0,P1)                                       1 	(obj:0)
yc0011(D3,P3)                                       1 	(obj:0)
yc0011(D4,P2)                                       1 	(obj:0)
yc0018(D1,P3)                                       1 	(obj:0)
yc0018(D2,P1)                                       1 	(obj:0)
yc0018(D3,P2)                                       1 	(obj:0)
yc0026(D2,P0)                                       1 	(obj:0)
yc0026(D3,P1)                                       1 	(obj:0)
yc0026(D4,P1)                                       1 	(obj:0)
yc0027(D0,P2)                                       1 	(obj:0)
yc0027(D1,P4)                                       1 	(obj:0)
yc0027(D2,P4)                                       1 	(obj:0)
yc0028(D2,P3)                                       1 	(obj:0)
yc0028(D3,P0)                                       1 	(obj:0)
yc0028(D4,P0)                                       1 	(obj:0)
yc0041(D0,P0)                                       1 	(obj:0)
yc0041(D2,P3)                                       1 	(obj:0)
yc0041(D2,P4)                                       1 	(obj:0)
yc0041(D3,P4)                                       1 	(obj:0)
yc0041(D4,P2)                                       1 	(obj:0)
yc0046(D2,P2)                                       1 	(obj:0)
yc0046(D3,P2)                                       1 	(obj:0)
yc0046(D4,P1)                                       1 	(obj:0)
yc0049(D1,P4)                                       1 	(obj:0)
yc0049(D2,P0)                                       1 	(obj:0)
yc0049(D3,P1)                                       1 	(obj:0)
yc0051(D1,P2)                                       1 	(obj:0)
yc0051(D3,P1)                                       1 	(obj:0)
yc0051(D4,P2)                                       1 	(obj:0)
yc0059(D1,P1)                                       1 	(obj:0)
yc0059(D2,P1)                                       1 	(obj:0)
yc0059(D3,P3)                                       1 	(obj:0)
yc0064(D0,P3)                                       1 	(obj:0)
yc0064(D1,P2)                                       1 	(obj:0)
yc0064(D3,P0)                                       1 	(obj:0)
yc0065(D2,P0)                                       1 	(obj:0)
yc0065(D3,P0)                                       1 	(obj:0)
yc0065(D4,P3)                                       1 	(obj:0)
yc0073(D1,P1)                                       1 	(obj:0)
yc0073(D2,P3)                                       1 	(obj:0)
yc0073(D2,P4)                                       1 	(obj:0)
yc0085(D1,P2)                                       1 	(obj:0)
yc0085(D2,P4)                                       1 	(obj:0)
yc0085(D3,P3)                                       1 	(obj:0)
yc0091(D1,P0)                                       1 	(obj:0)
yc0091(D2,P0)                                       1 	(obj:0)
yc0091(D3,P3)                                       1 	(obj:0)
yc0093(D0,P0)                                       1 	(obj:0)
yc0093(D1,P3)                                       1 	(obj:0)
yc0093(D1,P4)                                       1 	(obj:0)
yc0093(D2,P0)                                       1 	(obj:0)
yc0093(D4,P3)                                       1 	(obj:0)
yc0097(D1,P4)                                       1 	(obj:0)
yc0097(D2,P0)                                       1 	(obj:0)
yc0097(D3,P2)                                       1 	(obj:0)
yc0099(D0,P3)                                       1 	(obj:0)
yc0099(D3,P1)                                       1 	(obj:0)
yc0099(D4,P1)                                       1 	(obj:0)
yc0101(D0,P2)                                       1 	(obj:0)
yc0101(D2,P3)                                       1 	(obj:0)
yc101e(D0,P1)                                       1 	(obj:0)
yc200e(D1,P4)                                       1 	(obj:0)
yc0105(D0,P2)                                       1 	(obj:0)
yc0105(D1,P0)                                       1 	(obj:0)
yc0105(D2,P0)                                       1 	(obj:0)
yc0109(D0,P0)                                       1 	(obj:0)
yc0109(D2,P4)                                       1 	(obj:0)
yc0109(D3,P4)                                       1 	(obj:0)
yc0128(D0,P1)                                       1 	(obj:0)
yc0128(D1,P3)                                       1 	(obj:0)
yc0128(D4,P3)                                       1 	(obj:0)
yc0142(D0,P0)                                       1 	(obj:0)
yc0142(D1,P2)                                       1 	(obj:0)
yc0142(D4,P4)                                       1 	(obj:0)
yc0154(D1,P1)                                       1 	(obj:0)
yc0154(D2,P1)                                       1 	(obj:0)
yc0154(D4,P3)                                       1 	(obj:0)
yc0176(D0,P3)                                       1 	(obj:0)
yc0176(D2,P3)                                       1 	(obj:0)
yc0176(D3,P0)                                       1 	(obj:0)
yc0176(D4,P1)                                       1 	(obj:0)
yc0176(D4,P2)                                       1 	(obj:0)
yc0180(D1,P3)                                       1 	(obj:0)
yc0180(D2,P1)                                       1 	(obj:0)
yc0180(D3,P3)                                       1 	(obj:0)
yc0184(D1,P1)                                       1 	(obj:0)
yc0184(D3,P3)                                       1 	(obj:0)
yc0184(D3,P4)                                       1 	(obj:0)
yc0185(D0,P1)                                       1 	(obj:0)
yc0185(D1,P2)                                       1 	(obj:0)
yc0185(D2,P2)                                       1 	(obj:0)
yc0189(D1,P0)                                       1 	(obj:0)
yc0189(D2,P0)                                       1 	(obj:0)
yc0189(D3,P4)                                       1 	(obj:0)
yc0199(D0,P1)                                       1 	(obj:0)
yc0199(D1,P1)                                       1 	(obj:0)
yc0199(D2,P2)                                       1 	(obj:0)
yc0202(D0,P0)                                       1 	(obj:0)
yc0202(D2,P3)                                       1 	(obj:0)
yc0202(D2,P4)                                       1 	(obj:0)
yc0209(D1,P0)                                       1 	(obj:0)
yc0209(D2,P3)                                       1 	(obj:0)
yc0209(D2,P4)                                       1 	(obj:0)
yc0209(D3,P2)                                       1 	(obj:0)
yc0209(D4,P3)                                       1 	(obj:0)
yc0212(D0,P1)                                       1 	(obj:0)
yc0212(D2,P3)                                       1 	(obj:0)
yc0212(D3,P1)                                       1 	(obj:0)
yc0216(D1,P0)                                       1 	(obj:0)
yc0216(D2,P1)                                       1 	(obj:0)
yc0216(D3,P2)                                       1 	(obj:0)
yc0220(D0,P3)                                       1 	(obj:0)
yc0220(D2,P1)                                       1 	(obj:0)
yc0220(D3,P0)                                       1 	(obj:0)
yc0228(D0,P3)                                       1 	(obj:0)
yc0228(D1,P2)                                       1 	(obj:0)
yc0228(D3,P3)                                       1 	(obj:0)
yc0231(D1,P1)                                       1 	(obj:0)
yc0231(D2,P3)                                       1 	(obj:0)
yc0231(D3,P4)                                       1 	(obj:0)
yc0243(D1,P3)                                       1 	(obj:0)
yc0243(D2,P2)                                       1 	(obj:0)
yc0243(D3,P3)                                       1 	(obj:0)
yc0247(D0,P2)                                       1 	(obj:0)
yc0247(D1,P2)                                       1 	(obj:0)
yc0247(D3,P2)                                       1 	(obj:0)
yc0261(D0,P2)                                       1 	(obj:0)
yc0261(D4,P2)                                       1 	(obj:0)
yc0261(D4,P3)                                       1 	(obj:0)
yc0281(D0,P3)                                       1 	(obj:0)
yc0281(D1,P0)                                       1 	(obj:0)
yc0281(D3,P2)                                       1 	(obj:0)
yc0294(D0,P1)                                       1 	(obj:0)
yc0294(D4,P3)                                       1 	(obj:0)
yc0294(D4,P4)                                       1 	(obj:0)
yc0324(D0,P3)                                       1 	(obj:0)
yc0324(D1,P0)                                       1 	(obj:0)
yc0324(D2,P2)                                       1 	(obj:0)
yc0412(D1,P2)                                       1 	(obj:0)
yc0412(D2,P4)                                       1 	(obj:0)
yc0412(D3,P2)                                       1 	(obj:0)
yc0420(D1,P3)                                       1 	(obj:0)
yc0420(D2,P2)                                       1 	(obj:0)
yc0420(D3,P3)                                       1 	(obj:0)
yc0427(D0,P4)                                       1 	(obj:0)
yc0427(D2,P2)                                       1 	(obj:0)
yc0427(D3,P1)                                       1 	(obj:0)
yc0429(D0,P3)                                       1 	(obj:0)
yc0429(D1,P3)                                       1 	(obj:0)
yc0429(D2,P1)                                       1 	(obj:0)
yc0433(D1,P2)                                       1 	(obj:0)
yc0433(D2,P1)                                       1 	(obj:0)
yc0433(D3,P2)                                       1 	(obj:0)
yc0439(D1,P4)                                       1 	(obj:0)
yc0439(D2,P3)                                       1 	(obj:0)
yc0439(D3,P4)                                       1 	(obj:0)
yc0440(D1,P4)                                       1 	(obj:0)
yc0440(D2,P0)                                       1 	(obj:0)
yc0440(D3,P1)                                       1 	(obj:0)
yc0442(D1,P1)                                       1 	(obj:0)
yc0442(D2,P3)                                       1 	(obj:0)
yc0442(D3,P1)                                       1 	(obj:0)
yc0446(D0,P0)                                       1 	(obj:0)
yc0446(D4,P0)                                       1 	(obj:0)
yc0446(D4,P1)                                       1 	(obj:0)
yc0450(D0,P1)                                       1 	(obj:0)
yc0450(D1,P2)                                       1 	(obj:0)
yc0450(D3,P1)                                       1 	(obj:0)
yc0452(D1,P4)                                       1 	(obj:0)
yc0452(D2,P0)                                       1 	(obj:0)
yc0452(D3,P0)                                       1 	(obj:0)
yc0462(D0,P1)                                       1 	(obj:0)
yc0462(D3,P0)                                       1 	(obj:0)
yc0462(D4,P3)                                       1 	(obj:0)
yc0463(D0,P2)                                       1 	(obj:0)
yc0463(D4,P2)                                       1 	(obj:0)
yc0463(D4,P4)                                       1 	(obj:0)
yc0474(D1,P3)                                       1 	(obj:0)
yc0474(D1,P4)                                       1 	(obj:0)
yc0474(D2,P1)                                       1 	(obj:0)
yc0485(D1,P2)                                       1 	(obj:0)
yc0485(D1,P3)                                       1 	(obj:0)
yc0485(D2,P1)                                       1 	(obj:0)
yc0489(D2,P0)                                       1 	(obj:0)
yc0489(D3,P1)                                       1 	(obj:0)
yc0489(D3,P2)                                       1 	(obj:0)
yc0495(D1,P2)                                       1 	(obj:0)
yc0495(D3,P1)                                       1 	(obj:0)
yc0495(D4,P1)                                       1 	(obj:0)
yc0533(D1,P0)                                       1 	(obj:0)
yc0533(D2,P3)                                       1 	(obj:0)
yc0533(D4,P3)                                       1 	(obj:0)
yc0536(D1,P0)                                       1 	(obj:0)
yc0536(D2,P3)                                       1 	(obj:0)
yc0536(D4,P3)                                       1 	(obj:0)
yc0600(D1,P1)                                       1 	(obj:0)
yc0600(D2,P2)                                       1 	(obj:0)
yc0600(D4,P4)                                       1 	(obj:0)
yc0718(D1,P4)                                       1 	(obj:0)
yc0718(D2,P3)                                       1 	(obj:0)
yc0718(D3,P4)                                       1 	(obj:0)
yc0742(D0,P4)                                       1 	(obj:0)
yc0742(D2,P2)                                       1 	(obj:0)
yc0742(D3,P3)                                       1 	(obj:0)
yc0763(D0,P3)                                       1 	(obj:0)
yc0763(D1,P3)                                       1 	(obj:0)
yc0763(D2,P1)                                       1 	(obj:0)
yc0763(D3,P0)                                       1 	(obj:0)
yc0763(D3,P1)                                       1 	(obj:0)
yc0767(D0,P4)                                       1 	(obj:0)
yc0767(D2,P0)                                       1 	(obj:0)
yc0767(D3,P1)                                       1 	(obj:0)
yc0792(D0,P3)                                       1 	(obj:0)
yc0792(D3,P3)                                       1 	(obj:0)
yc0792(D4,P3)                                       1 	(obj:0)
yc0793(D0,P4)                                       1 	(obj:0)
yc0793(D1,P3)                                       1 	(obj:0)
yc0793(D2,P1)                                       1 	(obj:0)
yc0803(D1,P1)                                       1 	(obj:0)
yc0803(D1,P2)                                       1 	(obj:0)
yc0803(D3,P3)                                       1 	(obj:0)
yc0806(D2,P4)                                       1 	(obj:0)
yc0806(D3,P4)                                       1 	(obj:0)
yc0806(D4,P4)                                       1 	(obj:0)
yc0816(D2,P0)                                       1 	(obj:0)
yc0816(D3,P0)                                       1 	(obj:0)
yc0816(D4,P2)                                       1 	(obj:0)
yc0820(D0,P2)                                       1 	(obj:0)
yc0820(D1,P3)                                       1 	(obj:0)
yc0820(D2,P1)                                       1 	(obj:0)
yc0830(D1,P2)                                       1 	(obj:0)
yc0830(D3,P2)                                       1 	(obj:0)
yc0830(D4,P4)                                       1 	(obj:0)
yc0881(D0,P3)                                       1 	(obj:0)
yc0881(D1,P1)                                       1 	(obj:0)
yc0881(D3,P0)                                       1 	(obj:0)
yc0896(D0,P3)                                       1 	(obj:0)
yc0896(D1,P2)                                       1 	(obj:0)
yc0896(D2,P2)                                       1 	(obj:0)
yc0935(D0,P1)                                       1 	(obj:0)
yc0935(D1,P1)                                       1 	(obj:0)
yc0935(D2,P1)                                       1 	(obj:0)
yc0935(D3,P0)                                       1 	(obj:0)
yc0935(D4,P0)                                       1 	(obj:0)
yc0943(D1,P3)                                       1 	(obj:0)
yc0943(D2,P1)                                       1 	(obj:0)
yc0943(D3,P2)                                       1 	(obj:0)
yc0306(D0,P4)                                       1 	(obj:0)
yc0306(D1,P2)                                       1 	(obj:0)
yc0306(D2,P0)                                       1 	(obj:0)
yc0306(D3,P3)                                       1 	(obj:0)
yc0306(D3,P4)                                       1 	(obj:0)
yc0388(D0,P2)                                       1 	(obj:0)
yc0388(D1,P2)                                       1 	(obj:0)
yc0388(D2,P2)                                       1 	(obj:0)
yc0388(D2,P3)                                       1 	(obj:0)
yc0388(D4,P3)                                       1 	(obj:0)
yc0951(D0,P4)                                       1 	(obj:0)
yc0951(D1,P0)                                       1 	(obj:0)
yc0951(D1,P4)                                       1 	(obj:0)
yc0951(D2,P3)                                       1 	(obj:0)
yc0951(D2,P4)                                       1 	(obj:0)
yc0951(D3,P1)                                       1 	(obj:0)
yc0951(D4,P2)                                       1 	(obj:0)
yc0949(D0,P2)                                       1 	(obj:0)
yc0949(D0,P4)                                       1 	(obj:0)
yc0949(D1,P0)                                       1 	(obj:0)
yc0949(D2,P0)                                       1 	(obj:0)
yc0949(D2,P1)                                       1 	(obj:0)
yc0949(D3,P1)                                       1 	(obj:0)
yc0949(D4,P2)                                       1 	(obj:0)
yc0961(D0,P0)                                       1 	(obj:0)
yc0961(D0,P1)                                       1 	(obj:0)
yc0961(D0,P4)                                       1 	(obj:0)
yc0961(D2,P0)                                       1 	(obj:0)
yc0961(D4,P1)                                       1 	(obj:0)
yc0961(D4,P2)                                       1 	(obj:0)
yc0961(D4,P4)                                       1 	(obj:0)
yc0959(D0,P0)                                       1 	(obj:0)
yc0959(D0,P1)                                       1 	(obj:0)
yc0959(D0,P2)                                       1 	(obj:0)
yc0959(D1,P0)                                       1 	(obj:0)
yc0959(D2,P0)                                       1 	(obj:0)
yc0959(D4,P2)                                       1 	(obj:0)
yc0959(D4,P4)                                       1 	(obj:0)
yc0957(D0,P0)                                       1 	(obj:0)
yc0957(D0,P1)                                       1 	(obj:0)
yc0957(D0,P2)                                       1 	(obj:0)
yc0957(D0,P4)                                       1 	(obj:0)
yc0957(D1,P0)                                       1 	(obj:0)
yc0957(D4,P2)                                       1 	(obj:0)
yc0957(D4,P4)                                       1 	(obj:0)
yc0965(D0,P4)                                       1 	(obj:0)
yc0965(D1,P0)                                       1 	(obj:0)
yc0965(D1,P4)                                       1 	(obj:0)
yc0965(D3,P1)                                       1 	(obj:0)
yc0965(D3,P2)                                       1 	(obj:0)
yc0965(D3,P3)                                       1 	(obj:0)
yc0965(D3,P4)                                       1 	(obj:0)
yc0519(D0,P0)                                       1 	(obj:0)
yc0519(D0,P1)                                       1 	(obj:0)
yc0519(D1,P1)                                       1 	(obj:0)
yc0519(D2,P4)                                       1 	(obj:0)
yc0519(D4,P4)                                       1 	(obj:0)
yc0513(D0,P4)                                       1 	(obj:0)
yc0513(D1,P2)                                       1 	(obj:0)
yc0513(D2,P2)                                       1 	(obj:0)
yc0513(D4,P1)                                       1 	(obj:0)
yc0513(D4,P2)                                       1 	(obj:0)
yc0815(D1,P1)                                       1 	(obj:0)
yc0815(D1,P4)                                       1 	(obj:0)
yc0815(D2,P3)                                       1 	(obj:0)
yc0815(D3,P4)                                       1 	(obj:0)
yc0815(D4,P1)                                       1 	(obj:0)
yc0823(D0,P2)                                       1 	(obj:0)
yc0823(D2,P2)                                       1 	(obj:0)
yc0823(D3,P2)                                       1 	(obj:0)
yc0823(D4,P1)                                       1 	(obj:0)
yc0823(D4,P2)                                       1 	(obj:0)
yc0821(D0,P3)                                       1 	(obj:0)
yc0821(D1,P0)                                       1 	(obj:0)
yc0821(D1,P1)                                       1 	(obj:0)
yc0821(D2,P1)                                       1 	(obj:0)
yc0821(D3,P1)                                       1 	(obj:0)
DayInUsec0006d0                                     1 	(obj:0)
DayInUsec0006d1                                     1 	(obj:0)
DayInUsec0006d2                                     1 	(obj:0)
DayInUsec0011d0                                     1 	(obj:0)
DayInUsec0011d3                                     1 	(obj:0)
DayInUsec0011d4                                     1 	(obj:0)
DayInUsec0018d1                                     1 	(obj:0)
DayInUsec0018d2                                     1 	(obj:0)
DayInUsec0018d3                                     1 	(obj:0)
DayInUsec0026d2                                     1 	(obj:0)
DayInUsec0026d3                                     1 	(obj:0)
DayInUsec0026d4                                     1 	(obj:0)
DayInUsec0027d0                                     1 	(obj:0)
DayInUsec0027d1                                     1 	(obj:0)
DayInUsec0027d2                                     1 	(obj:0)
DayInUsec0028d2                                     1 	(obj:0)
DayInUsec0028d3                                     1 	(obj:0)
DayInUsec0028d4                                     1 	(obj:0)
DayInUsec0041d0                                     1 	(obj:0)
DayInUsec0041d2                                     1 	(obj:0)
DayInUsec0041d3                                     1 	(obj:0)
DayInUsec0041d4                                     1 	(obj:0)
DayInUsec0046d2                                     1 	(obj:0)
DayInUsec0046d3                                     1 	(obj:0)
DayInUsec0046d4                                     1 	(obj:0)
DayInUsec0049d1                                     1 	(obj:0)
DayInUsec0049d2                                     1 	(obj:0)
DayInUsec0049d3                                     1 	(obj:0)
DayInUsec0051d1                                     1 	(obj:0)
DayInUsec0051d3                                     1 	(obj:0)
DayInUsec0051d4                                     1 	(obj:0)
DayInUsec0059d1                                     1 	(obj:0)
DayInUsec0059d2                                     1 	(obj:0)
DayInUsec0059d3                                     1 	(obj:0)
DayInUsec0064d0                                     1 	(obj:0)
DayInUsec0064d1                                     1 	(obj:0)
DayInUsec0064d3                                     1 	(obj:0)
DayInUsec0065d2                                     1 	(obj:0)
DayInUsec0065d3                                     1 	(obj:0)
DayInUsec0065d4                                     1 	(obj:0)
DayInUsec0073d1                                     1 	(obj:0)
DayInUsec0073d2                                     1 	(obj:0)
DayInUsec0085d1                                     1 	(obj:0)
DayInUsec0085d2                                     1 	(obj:0)
DayInUsec0085d3                                     1 	(obj:0)
DayInUsec0091d1                                     1 	(obj:0)
DayInUsec0091d2                                     1 	(obj:0)
DayInUsec0091d3                                     1 	(obj:0)
DayInUsec0093d0                                     1 	(obj:0)
DayInUsec0093d1                                     1 	(obj:0)
DayInUsec0093d2                                     1 	(obj:0)
DayInUsec0093d4                                     1 	(obj:0)
DayInUsec0097d1                                     1 	(obj:0)
DayInUsec0097d2                                     1 	(obj:0)
DayInUsec0097d3                                     1 	(obj:0)
DayInUsec0099d0                                     1 	(obj:0)
DayInUsec0099d3                                     1 	(obj:0)
DayInUsec0099d4                                     1 	(obj:0)
DayInUsec0101d0                                     1 	(obj:0)
DayInUsec0101d2                                     1 	(obj:0)
DayInUsec0105d0                                     1 	(obj:0)
DayInUsec0105d1                                     1 	(obj:0)
DayInUsec0105d2                                     1 	(obj:0)
DayInUsec0109d0                                     1 	(obj:0)
DayInUsec0109d2                                     1 	(obj:0)
DayInUsec0109d3                                     1 	(obj:0)
DayInUsec0128d0                                     1 	(obj:0)
DayInUsec0128d1                                     1 	(obj:0)
DayInUsec0128d4                                     1 	(obj:0)
DayInUsec0142d1                                     1 	(obj:0)
DayInUsec0142d4                                     1 	(obj:0)
DayInUsec0154d1                                     1 	(obj:0)
DayInUsec0154d2                                     1 	(obj:0)
DayInUsec0154d4                                     1 	(obj:0)
DayInUsec0176d0                                     1 	(obj:0)
DayInUsec0176d2                                     1 	(obj:0)
DayInUsec0176d3                                     1 	(obj:0)
DayInUsec0176d4                                     1 	(obj:0)
DayInUsec0180d1                                     1 	(obj:0)
DayInUsec0180d2                                     1 	(obj:0)
DayInUsec0180d3                                     1 	(obj:0)
DayInUsec0184d1                                     1 	(obj:0)
DayInUsec0184d3                                     1 	(obj:0)
DayInUsec0185d0                                     1 	(obj:0)
DayInUsec0185d1                                     1 	(obj:0)
DayInUsec0185d2                                     1 	(obj:0)
DayInUsec0189d1                                     1 	(obj:0)
DayInUsec0189d2                                     1 	(obj:0)
DayInUsec0189d3                                     1 	(obj:0)
DayInUsec0199d0                                     1 	(obj:0)
DayInUsec0199d1                                     1 	(obj:0)
DayInUsec0199d2                                     1 	(obj:0)
DayInUsec0202d0                                     1 	(obj:0)
DayInUsec0202d2                                     1 	(obj:0)
DayInUsec0209d1                                     1 	(obj:0)
DayInUsec0209d2                                     1 	(obj:0)
DayInUsec0209d3                                     1 	(obj:0)
DayInUsec0209d4                                     1 	(obj:0)
DayInUsec0212d0                                     1 	(obj:0)
DayInUsec0212d2                                     1 	(obj:0)
DayInUsec0212d3                                     1 	(obj:0)
DayInUsec0216d1                                     1 	(obj:0)
DayInUsec0216d2                                     1 	(obj:0)
DayInUsec0216d3                                     1 	(obj:0)
DayInUsec0220d0                                     1 	(obj:0)
DayInUsec0220d2                                     1 	(obj:0)
DayInUsec0220d3                                     1 	(obj:0)
DayInUsec0228d0                                     1 	(obj:0)
DayInUsec0228d1                                     1 	(obj:0)
DayInUsec0228d3                                     1 	(obj:0)
DayInUsec0231d1                                     1 	(obj:0)
DayInUsec0231d2                                     1 	(obj:0)
DayInUsec0231d3                                     1 	(obj:0)
DayInUsec0243d1                                     1 	(obj:0)
DayInUsec0243d2                                     1 	(obj:0)
DayInUsec0243d3                                     1 	(obj:0)
DayInUsec0247d0                                     1 	(obj:0)
DayInUsec0247d1                                     1 	(obj:0)
DayInUsec0247d3                                     1 	(obj:0)
DayInUsec0261d0                                     1 	(obj:0)
DayInUsec0261d4                                     1 	(obj:0)
DayInUsec0281d0                                     1 	(obj:0)
DayInUsec0281d1                                     1 	(obj:0)
DayInUsec0281d3                                     1 	(obj:0)
DayInUsec0294d0                                     1 	(obj:0)
DayInUsec0294d4                                     1 	(obj:0)
DayInUsec0324d0                                     1 	(obj:0)
DayInUsec0324d1                                     1 	(obj:0)
DayInUsec0324d2                                     1 	(obj:0)
DayInUsec0412d1                                     1 	(obj:0)
DayInUsec0412d2                                     1 	(obj:0)
DayInUsec0412d3                                     1 	(obj:0)
DayInUsec0420d1                                     1 	(obj:0)
DayInUsec0420d2                                     1 	(obj:0)
DayInUsec0420d3                                     1 	(obj:0)
DayInUsec0427d0                                     1 	(obj:0)
DayInUsec0427d2                                     1 	(obj:0)
DayInUsec0427d3                                     1 	(obj:0)
DayInUsec0429d0                                     1 	(obj:0)
DayInUsec0429d1                                     1 	(obj:0)
DayInUsec0429d2                                     1 	(obj:0)
DayInUsec0433d1                                     1 	(obj:0)
DayInUsec0433d2                                     1 	(obj:0)
DayInUsec0433d3                                     1 	(obj:0)
DayInUsec0439d1                                     1 	(obj:0)
DayInUsec0439d2                                     1 	(obj:0)
DayInUsec0439d3                                     1 	(obj:0)
DayInUsec0440d1                                     1 	(obj:0)
DayInUsec0440d2                                     1 	(obj:0)
DayInUsec0440d3                                     1 	(obj:0)
DayInUsec0442d1                                     1 	(obj:0)
DayInUsec0442d2                                     1 	(obj:0)
DayInUsec0442d3                                     1 	(obj:0)
DayInUsec0446d0                                     1 	(obj:0)
DayInUsec0446d4                                     1 	(obj:0)
DayInUsec0450d0                                     1 	(obj:0)
DayInUsec0450d1                                     1 	(obj:0)
DayInUsec0450d3                                     1 	(obj:0)
DayInUsec0452d1                                     1 	(obj:0)
DayInUsec0452d2                                     1 	(obj:0)
DayInUsec0452d3                                     1 	(obj:0)
DayInUsec0462d0                                     1 	(obj:0)
DayInUsec0462d3                                     1 	(obj:0)
DayInUsec0462d4                                     1 	(obj:0)
DayInUsec0463d0                                     1 	(obj:0)
DayInUsec0463d4                                     1 	(obj:0)
DayInUsec0474d1                                     1 	(obj:0)
DayInUsec0474d2                                     1 	(obj:0)
DayInUsec0485d1                                     1 	(obj:0)
DayInUsec0485d2                                     1 	(obj:0)
DayInUsec0489d2                                     1 	(obj:0)
DayInUsec0489d3                                     1 	(obj:0)
DayInUsec0495d1                                     1 	(obj:0)
DayInUsec0495d3                                     1 	(obj:0)
DayInUsec0495d4                                     1 	(obj:0)
DayInUsec0533d2                                     1 	(obj:0)
DayInUsec0533d4                                     1 	(obj:0)
DayInUsec0536d2                                     1 	(obj:0)
DayInUsec0536d4                                     1 	(obj:0)
DayInUsec0600d1                                     1 	(obj:0)
DayInUsec0600d2                                     1 	(obj:0)
DayInUsec0600d4                                     1 	(obj:0)
DayInUsec0718d1                                     1 	(obj:0)
DayInUsec0718d3                                     1 	(obj:0)
DayInUsec0742d0                                     1 	(obj:0)
DayInUsec0742d2                                     1 	(obj:0)
DayInUsec0742d3                                     1 	(obj:0)
DayInUsec0763d0                                     1 	(obj:0)
DayInUsec0763d1                                     1 	(obj:0)
DayInUsec0763d2                                     1 	(obj:0)
DayInUsec0763d3                                     1 	(obj:0)
DayInUsec0767d0                                     1 	(obj:0)
DayInUsec0767d2                                     1 	(obj:0)
DayInUsec0767d3                                     1 	(obj:0)
DayInUsec0792d0                                     1 	(obj:0)
DayInUsec0792d3                                     1 	(obj:0)
DayInUsec0792d4                                     1 	(obj:0)
DayInUsec0793d0                                     1 	(obj:0)
DayInUsec0793d1                                     1 	(obj:0)
DayInUsec0793d2                                     1 	(obj:0)
DayInUsec0803d1                                     1 	(obj:0)
DayInUsec0803d3                                     1 	(obj:0)
DayInUsec0806d2                                     1 	(obj:0)
DayInUsec0806d3                                     1 	(obj:0)
DayInUsec0806d4                                     1 	(obj:0)
DayInUsec0816d2                                     1 	(obj:0)
DayInUsec0816d3                                     1 	(obj:0)
DayInUsec0816d4                                     1 	(obj:0)
DayInUsec0820d0                                     1 	(obj:0)
DayInUsec0820d1                                     1 	(obj:0)
DayInUsec0820d2                                     1 	(obj:0)
DayInUsec0830d1                                     1 	(obj:0)
DayInUsec0830d3                                     1 	(obj:0)
DayInUsec0830d4                                     1 	(obj:0)
DayInUsec0881d0                                     1 	(obj:0)
DayInUsec0881d1                                     1 	(obj:0)
DayInUsec0881d3                                     1 	(obj:0)
DayInUsec0896d0                                     1 	(obj:0)
DayInUsec0896d1                                     1 	(obj:0)
DayInUsec0896d2                                     1 	(obj:0)
DayInUsec0935d0                                     1 	(obj:0)
DayInUsec0935d1                                     1 	(obj:0)
DayInUsec0935d2                                     1 	(obj:0)
DayInUsec0935d3                                     1 	(obj:0)
DayInUsec0935d4                                     1 	(obj:0)
DayInUsec0943d1                                     1 	(obj:0)
DayInUsec0943d2                                     1 	(obj:0)
DayInUsec0943d3                                     1 	(obj:0)
DayInUsec0306d0                                     1 	(obj:0)
DayInUsec0306d1                                     1 	(obj:0)
DayInUsec0306d2                                     1 	(obj:0)
DayInUsec0306d3                                     1 	(obj:0)
DayInUsec0388d0                                     1 	(obj:0)
DayInUsec0388d1                                     1 	(obj:0)
DayInUsec0388d2                                     1 	(obj:0)
DayInUsec0388d4                                     1 	(obj:0)
DayInUsec0519d0                                     1 	(obj:0)
DayInUsec0519d1                                     1 	(obj:0)
DayInUsec0519d2                                     1 	(obj:0)
DayInUsec0519d4                                     1 	(obj:0)
DayInUsec0513d0                                     1 	(obj:0)
DayInUsec0513d1                                     1 	(obj:0)
DayInUsec0513d2                                     1 	(obj:0)
DayInUsec0513d4                                     1 	(obj:0)
DayInUsec0815d1                                     1 	(obj:0)
DayInUsec0815d2                                     1 	(obj:0)
DayInUsec0815d3                                     1 	(obj:0)
DayInUsec0815d4                                     1 	(obj:0)
DayInUsec0823d0                                     1 	(obj:0)
DayInUsec0823d2                                     1 	(obj:0)
DayInUsec0823d3                                     1 	(obj:0)
DayInUsec0823d4                                     1 	(obj:0)
DayInUsec0821d0                                     1 	(obj:0)
DayInUsec0821d1                                     1 	(obj:0)
DayInUsec0821d2                                     1 	(obj:0)
DayInUsec0821d3                                     1 	(obj:0)
CurriculaIsolatedq000(D0,P3)                        1 	(obj:2)
CurriculaIsolatedq000(D2,P3)                        1 	(obj:2)
CurriculaIsolatedq017(D1,P0)                        1 	(obj:2)
CurriculaIsolatedq017(D3,P2)                        1 	(obj:2)
CurriculaIsolatedq017(D4,P3)                        1 	(obj:2)
CurriculaIsolatedq030(D0,P0)                        1 	(obj:2)
CurriculaIsolatedq030(D3,P4)                        1 	(obj:2)
CurriculaIsolatedq030(D4,P2)                        1 	(obj:2)
CurriculaIsolatedq039(D4,P4)                        1 	(obj:2)
CurriculaIsolatedq040(D2,P1)                        1 	(obj:2)
CurriculaIsolatedq043(D2,P0)                        1 	(obj:2)
CurriculaIsolatedq050(D2,P2)                        1 	(obj:2)
CurriculaIsolatedq052(D0,P3)                        1 	(obj:2)
CurriculaIsolatedq059(D0,P0)                        1 	(obj:2)
CurriculaIsolatedq059(D2,P0)                        1 	(obj:2)
CurriculaIsolatedq059(D4,P3)                        1 	(obj:2)
CurriculaIsolatedq064(D1,P1)                        1 	(obj:2)
CurriculaIsolatedq064(D2,P4)                        1 	(obj:2)
CurriculaIsolatedq064(D4,P4)                        1 	(obj:2)
CurriculaIsolatedq071(D0,P3)                        1 	(obj:2)
CurriculaIsolatedq073(D1,P0)                        1 	(obj:2)
CurriculaIsolatedq073(D3,P1)                        1 	(obj:2)
CurriculaIsolatedq074(D1,P2)                        1 	(obj:2)
CurriculaIsolatedq074(D2,P2)                        1 	(obj:2)
DaysBelowVioc0519                                   1 	(obj:5)
DaysBelowVioc0474                                   1 	(obj:5)
DaysBelowVioc0202                                   1 	(obj:5)
DaysBelowVioc0073                                   1 	(obj:5)
